TCS_Benchmarks/redos_fix/snort3_output_distinct_4737_4736_0_0.txt
[^\n]*
([^\n]*)([rR][eE][dD][iI][rR][eE][cC][tT])([^\n]*)
[^\n]*